sing20130403.00
TTAA  53001 48698
99006 27662 29002 00064 27261 28501 92752 23647 35503
85486 19249 35505 70132 10013 15508 50587 04356 10523
40760 13740 13031 30973 28957 11019 25100 38557 15520
20249 51535 15528 15429 66731 11032 10664 85113 07029
88999
77999=
=
TTDD  5300/ 48698
11957 86758 22945 87158 33894 88773 44876 89569 55851
89912
21212 11983 07529 22939 07527 33917 07525 44895 08527
55875 09526 66851 10527=
